NAME: dj38
COMMENT: Quick (5min) local search tour for dj38 (8441.20278791693)
TYPE: TOUR
DIMENSION: 38
TOUR_SECTION: 1 10 14 21 29 30 32 20 23 26 25 22 24 37 35 38 33 34 36 31 27 28 11 12 17 18 19 16 9 8 13 6 7 5 3 4 15 2 -1
EOF